============================[ Problem Statistics ]=============================|                                                                             ||  Number of variables:          4242                                         ||  Number of clauses:           10455                                         ||  Parse time:                   0.84 s                                       ||                                                                             |============================[ Search Statistics ]==============================| Conflicts |          ORIGINAL         |          LEARNT          | Progress ||           |    Vars  Clauses Literals |    Limit  Clauses Lit/Cl |          |===============================================================================|       100 |    1591     6660  1343461 |     2442      100     53 | 62.501 % ||       250 |    1591     6660  1343461 |     2686      250     75 | 62.495 % |===============================================================================restarts              : 4conflicts             : 453            (359 /sec)decisions             : 812            (0.00 % random) (643 /sec)propagations          : 13752          (10888 /sec)conflict literals     : 38413          (94.46 % deleted)CPU time              : 1.263 sSATISFIABLE